6 24 4 10
18 20 11 11 7 7 14 15 16 17 5 8 16 12 3 18 14 7 8 4 5 17 6 7 
2.98 13.88 5.55 5.98 0.87 2.05 6.39 12.08 6.36 12.23 3.47 6.09 2.43 13.86 9.02 12.86 5.67 0.32 4.33 0.55 5.41 14.18 3.3 13.91 
14.33 12 6.71 14.72 13.5 4.57 3.68 5.13 8.6 10.96 9.31 3.93 1.8 14.91 9.46 2.69 14.4 1.1 1.16 1.93 13.8 6.09 3.47 15.1 
0.32 4.78 10.8 15.68 11.12 12.26 2.63 8.07 2.35 13.52 11.68 6.7 2.06 0.44 6.56 6.87 12.47 6.87 7.95 11.04 1.34 5 5.15 4.44 
10.28 12.04 6.01 2.77 8.98 5.68 1.11 5.06 4.14 11.31 1.63 15.51 8.78 6.38 14.67 10 13.33 15.85 6.72 2.39 8.46 5.87 15.02 10.24 
8 8 8 8 8 8 8 8 8 8 8 8 8 8 8 8 8 8 8 8 8 8 8 8 
1.58 0.78 2.75 13.11 7.85 11.73 4.8 14.69 3.72 6.91 13.48 0.48 2.22 13.16 13.82 13.64 13.64 10.99 15.23 2.99 5.81 2.02 9.62 15.71 
1 1 1 1 1 1 1 1 1 1 1 1 1 1 1 1 1 1 1 1 1 1 1 1 
1 1 1 1 1 1 1 1 1 1 1 1 1 1 1 1 1 1 1 1 1 1 1 1 
1 1 1 1 1 1 1 1 1 1 1 1 1 1 1 1 1 1 1 1 1 1 1 1 
1 1 1 1 1 1 1 1 1 1 1 1 1 1 1 1 1 1 1 1 1 1 1 1 
1 1 1 1 1 1 1 1 1 1 1 1 1 1 1 1 1 1 1 1 1 1 1 1 
1 1 1 1 1 1 1 1 1 1 1 1 1 1 1 1 1 1 1 1 1 1 1 1 
0.01 0.01 0.01 0.01 0.01 0.01 0.01 0.01 0.01 0.01 0.01 0.01 0.01 0.01 0.01 0.01 0.01 0.01 0.01 0.01 0.01 0.01 0.01 0.01 
0.02 0.02 0.02 0.02 0.02 0.02 0.02 0.02 0.02 0.02 0.02 0.02 0.02 0.02 0.02 0.02 0.02 0.02 0.02 0.02 0.02 0.02 0.02 0.02 
0.03 0.03 0.03 0.03 0.03 0.03 0.03 0.03 0.03 0.03 0.03 0.03 0.03 0.03 0.03 0.03 0.03 0.03 0.03 0.03 0.03 0.03 0.03 0.03 
0.04 0.04 0.04 0.04 0.04 0.04 0.04 0.04 0.04 0.04 0.04 0.04 0.04 0.04 0.04 0.04 0.04 0.04 0.04 0.04 0.04 0.04 0.04 0.04 
0.05 0.05 0.05 0.05 0.05 0.05 0.05 0.05 0.05 0.05 0.05 0.05 0.05 0.05 0.05 0.05 0.05 0.05 0.05 0.05 0.05 0.05 0.05 0.05 
1 1 1 1 1 1 1 1 1 1 1 1 1 1 1 1 1 1 1 1 1 1 1 1 
